15200-pulp.mps
*SENSE:Maximize
NAME          MODEL
ROWS
 N  OBJ
 L  C0000000
 G  C0000001
 L  C0000002
 L  C0000003
 L  C0000004
 L  C0000005
 L  C0000006
 L  C0000007
 L  C0000008
 L  C0000009
 L  C0000010
 L  C0000011
 L  C0000012
 L  C0000013
 L  C0000014
 L  C0000015
 L  C0000016
 L  C0000017
 L  C0000018
 L  C0000019
 L  C0000020
 L  C0000021
 L  C0000022
 L  C0000023
 L  C0000024
 L  C0000025
 L  C0000026
 L  C0000027
 L  C0000028
 L  C0000029
 L  C0000030
 L  C0000031
 L  C0000032
 L  C0000033
 L  C0000034
 L  C0000035
 L  C0000036
 L  C0000037
 L  C0000038
 L  C0000039
 L  C0000040
 L  C0000041
 L  C0000042
 L  C0000043
 L  C0000044
 L  C0000045
 L  C0000046
 L  C0000047
 L  C0000048
COLUMNS
    X0000000  C0000016   2.000000000000e+00
    X0000000  C0000017   2.000000000000e+00
    X0000000  C0000014   2.000000000000e+00
    X0000000  C0000015   2.000000000000e+00
    X0000000  C0000012   2.000000000000e+00
    X0000000  C0000013   2.000000000000e+00
    X0000000  C0000010   2.000000000000e+00
    X0000000  C0000011   2.000000000000e+00
    X0000000  C0000038   2.000000000000e+00
    X0000000  C0000039   2.000000000000e+00
    X0000000  C0000032   2.000000000000e+00
    X0000000  C0000018   2.000000000000e+00
    X0000000  C0000019   2.000000000000e+00
    X0000000  C0000033   2.000000000000e+00
    X0000000  C0000034   2.000000000000e+00
    X0000000  C0000035   2.000000000000e+00
    X0000000  C0000045   2.000000000000e+00
    X0000000  C0000030   2.000000000000e+00
    X0000000  C0000036   2.000000000000e+00
    X0000000  C0000044   2.000000000000e+00
    X0000000  C0000037   2.000000000000e+00
    X0000000  C0000031   2.000000000000e+00
    X0000000  C0000009   2.000000000000e+00
    X0000000  C0000008   2.000000000000e+00
    X0000000  C0000047   2.000000000000e+00
    X0000000  C0000046   2.000000000000e+00
    X0000000  C0000041   2.000000000000e+00
    X0000000  C0000040   2.000000000000e+00
    X0000000  C0000043   2.000000000000e+00
    X0000000  C0000042   2.000000000000e+00
    X0000000  C0000001   1.000000000000e+01
    X0000000  C0000000   4.000000000000e+00
    X0000000  C0000003   2.000000000000e+00
    X0000000  C0000002   1.000000000000e+00
    X0000000  C0000005   2.000000000000e+00
    X0000000  C0000004   2.000000000000e+00
    X0000000  C0000007   2.000000000000e+00
    X0000000  C0000006   2.000000000000e+00
    X0000000  C0000023   2.000000000000e+00
    X0000000  C0000022   2.000000000000e+00
    X0000000  C0000021   2.000000000000e+00
    X0000000  C0000020   2.000000000000e+00
    X0000000  C0000027   2.000000000000e+00
    X0000000  C0000026   2.000000000000e+00
    X0000000  C0000025   2.000000000000e+00
    X0000000  C0000024   2.000000000000e+00
    X0000000  C0000029   2.000000000000e+00
    X0000000  C0000028   2.000000000000e+00
    X0000000  C0000048   2.000000000000e+00
    X0000000  OBJ        2.000000000000e+00
    X0000001  C0000016   1.000000000000e+00
    X0000001  C0000017   1.000000000000e+00
    X0000001  C0000014   1.000000000000e+00
    X0000001  C0000015   1.000000000000e+00
    X0000001  C0000012   1.000000000000e+00
    X0000001  C0000013   1.000000000000e+00
    X0000001  C0000010   1.000000000000e+00
    X0000001  C0000011   1.000000000000e+00
    X0000001  C0000038   1.000000000000e+00
    X0000001  C0000039   1.000000000000e+00
    X0000001  C0000032   1.000000000000e+00
    X0000001  C0000018   1.000000000000e+00
    X0000001  C0000019   1.000000000000e+00
    X0000001  C0000033   1.000000000000e+00
    X0000001  C0000034   1.000000000000e+00
    X0000001  C0000035   1.000000000000e+00
    X0000001  C0000045   1.000000000000e+00
    X0000001  C0000030   1.000000000000e+00
    X0000001  C0000036   1.000000000000e+00
    X0000001  C0000044   1.000000000000e+00
    X0000001  C0000037   1.000000000000e+00
    X0000001  C0000031   1.000000000000e+00
    X0000001  C0000009   1.000000000000e+00
    X0000001  C0000008   1.000000000000e+00
    X0000001  C0000047   1.000000000000e+00
    X0000001  C0000046   1.000000000000e+00
    X0000001  C0000041   1.000000000000e+00
    X0000001  C0000040   1.000000000000e+00
    X0000001  C0000043   1.000000000000e+00
    X0000001  C0000042   1.000000000000e+00
    X0000001  C0000001   2.300000000000e+01
    X0000001  C0000000   7.000000000000e+00
    X0000001  C0000003   1.000000000000e+00
    X0000001  C0000002   1.000000000000e+00
    X0000001  C0000005   1.000000000000e+00
    X0000001  C0000004   1.000000000000e+00
    X0000001  C0000007   1.000000000000e+00
    X0000001  C0000006   1.000000000000e+00
    X0000001  C0000023   1.000000000000e+00
    X0000001  C0000022   1.000000000000e+00
    X0000001  C0000021   1.000000000000e+00
    X0000001  C0000020   1.000000000000e+00
    X0000001  C0000027   1.000000000000e+00
    X0000001  C0000026   1.000000000000e+00
    X0000001  C0000025   1.000000000000e+00
    X0000001  C0000024   1.000000000000e+00
    X0000001  C0000029   1.000000000000e+00
    X0000001  C0000028   1.000000000000e+00
    X0000001  C0000048   1.000000000000e+00
    X0000001  OBJ        1.000000000000e+00
    X0000002  C0000016   1.000000000000e+00
    X0000002  C0000017   1.000000000000e+00
    X0000002  C0000014   1.000000000000e+00
    X0000002  C0000015   1.000000000000e+00
    X0000002  C0000012   1.000000000000e+00
    X0000002  C0000013   1.000000000000e+00
    X0000002  C0000010   1.000000000000e+00
    X0000002  C0000011   1.000000000000e+00
    X0000002  C0000038   1.000000000000e+00
    X0000002  C0000039   1.000000000000e+00
    X0000002  C0000032   1.000000000000e+00
    X0000002  C0000018   1.000000000000e+00
    X0000002  C0000019   1.000000000000e+00
    X0000002  C0000033   1.000000000000e+00
    X0000002  C0000034   1.000000000000e+00
    X0000002  C0000035   1.000000000000e+00
    X0000002  C0000045   1.000000000000e+00
    X0000002  C0000030   1.000000000000e+00
    X0000002  C0000036   1.000000000000e+00
    X0000002  C0000044   1.000000000000e+00
    X0000002  C0000037   1.000000000000e+00
    X0000002  C0000031   1.000000000000e+00
    X0000002  C0000009   1.000000000000e+00
    X0000002  C0000008   1.000000000000e+00
    X0000002  C0000047   1.000000000000e+00
    X0000002  C0000046   1.000000000000e+00
    X0000002  C0000041   1.000000000000e+00
    X0000002  C0000040   1.000000000000e+00
    X0000002  C0000043   1.000000000000e+00
    X0000002  C0000042   1.000000000000e+00
    X0000002  C0000001   2.100000000000e+01
    X0000002  C0000000   3.000000000000e+00
    X0000002  C0000003   1.000000000000e+00
    X0000002  C0000002   1.000000000000e+00
    X0000002  C0000005   1.000000000000e+00
    X0000002  C0000004   1.000000000000e+00
    X0000002  C0000007   1.000000000000e+00
    X0000002  C0000006   1.000000000000e+00
    X0000002  C0000023   1.000000000000e+00
    X0000002  C0000022   1.000000000000e+00
    X0000002  C0000021   1.000000000000e+00
    X0000002  C0000020   1.000000000000e+00
    X0000002  C0000027   1.000000000000e+00
    X0000002  C0000026   1.000000000000e+00
    X0000002  C0000025   1.000000000000e+00
    X0000002  C0000024   1.000000000000e+00
    X0000002  C0000029   1.000000000000e+00
    X0000002  C0000028   1.000000000000e+00
    X0000002  C0000048   1.000000000000e+00
    X0000002  OBJ        1.000000000000e+00
    X0000003  C0000016   1.000000000000e+00
    X0000003  C0000017   1.000000000000e+00
    X0000003  C0000014   1.000000000000e+00
    X0000003  C0000015   1.000000000000e+00
    X0000003  C0000012   1.000000000000e+00
    X0000003  C0000013   1.000000000000e+00
    X0000003  C0000010   1.000000000000e+00
    X0000003  C0000011   1.000000000000e+00
    X0000003  C0000038   1.000000000000e+00
    X0000003  C0000039   1.000000000000e+00
    X0000003  C0000032   1.000000000000e+00
    X0000003  C0000018   1.000000000000e+00
    X0000003  C0000019   1.000000000000e+00
    X0000003  C0000033   1.000000000000e+00
    X0000003  C0000034   1.000000000000e+00
    X0000003  C0000035   1.000000000000e+00
    X0000003  C0000045   1.000000000000e+00
    X0000003  C0000030   1.000000000000e+00
    X0000003  C0000036   1.000000000000e+00
    X0000003  C0000044   1.000000000000e+00
    X0000003  C0000037   1.000000000000e+00
    X0000003  C0000031   1.000000000000e+00
    X0000003  C0000009   1.000000000000e+00
    X0000003  C0000008   1.000000000000e+00
    X0000003  C0000047   1.000000000000e+00
    X0000003  C0000046   1.000000000000e+00
    X0000003  C0000041   1.000000000000e+00
    X0000003  C0000040   1.000000000000e+00
    X0000003  C0000043   1.000000000000e+00
    X0000003  C0000042   1.000000000000e+00
    X0000003  C0000001   1.900000000000e+01
    X0000003  C0000000   4.000000000000e+00
    X0000003  C0000003   1.000000000000e+00
    X0000003  C0000002   1.000000000000e+00
    X0000003  C0000005   1.000000000000e+00
    X0000003  C0000004   1.000000000000e+00
    X0000003  C0000007   1.000000000000e+00
    X0000003  C0000006   1.000000000000e+00
    X0000003  C0000023   1.000000000000e+00
    X0000003  C0000022   1.000000000000e+00
    X0000003  C0000021   1.000000000000e+00
    X0000003  C0000020   1.000000000000e+00
    X0000003  C0000027   1.000000000000e+00
    X0000003  C0000026   1.000000000000e+00
    X0000003  C0000025   1.000000000000e+00
    X0000003  C0000024   1.000000000000e+00
    X0000003  C0000029   1.000000000000e+00
    X0000003  C0000028   1.000000000000e+00
    X0000003  C0000048   1.000000000000e+00
    X0000003  OBJ        1.000000000000e+00
    X0000004  C0000016   1.000000000000e+00
    X0000004  C0000017   1.000000000000e+00
    X0000004  C0000014   1.000000000000e+00
    X0000004  C0000015   1.000000000000e+00
    X0000004  C0000012   1.000000000000e+00
    X0000004  C0000013   1.000000000000e+00
    X0000004  C0000010   1.000000000000e+00
    X0000004  C0000011   1.000000000000e+00
    X0000004  C0000038   1.000000000000e+00
    X0000004  C0000039   1.000000000000e+00
    X0000004  C0000032   1.000000000000e+00
    X0000004  C0000018   1.000000000000e+00
    X0000004  C0000019   1.000000000000e+00
    X0000004  C0000033   1.000000000000e+00
    X0000004  C0000034   1.000000000000e+00
    X0000004  C0000035   1.000000000000e+00
    X0000004  C0000045   1.000000000000e+00
    X0000004  C0000030   1.000000000000e+00
    X0000004  C0000036   1.000000000000e+00
    X0000004  C0000044   1.000000000000e+00
    X0000004  C0000037   1.000000000000e+00
    X0000004  C0000031   1.000000000000e+00
    X0000004  C0000009   1.000000000000e+00
    X0000004  C0000008   1.000000000000e+00
    X0000004  C0000047   1.000000000000e+00
    X0000004  C0000046   1.000000000000e+00
    X0000004  C0000041   1.000000000000e+00
    X0000004  C0000040   1.000000000000e+00
    X0000004  C0000043   1.000000000000e+00
    X0000004  C0000042   1.000000000000e+00
    X0000004  C0000001   1.100000000000e+01
    X0000004  C0000000   6.000000000000e+00
    X0000004  C0000003   1.000000000000e+00
    X0000004  C0000002   1.000000000000e+00
    X0000004  C0000005   1.000000000000e+00
    X0000004  C0000004   1.000000000000e+00
    X0000004  C0000007   1.000000000000e+00
    X0000004  C0000006   1.000000000000e+00
    X0000004  C0000023   1.000000000000e+00
    X0000004  C0000022   1.000000000000e+00
    X0000004  C0000021   1.000000000000e+00
    X0000004  C0000020   1.000000000000e+00
    X0000004  C0000027   1.000000000000e+00
    X0000004  C0000026   1.000000000000e+00
    X0000004  C0000025   1.000000000000e+00
    X0000004  C0000024   1.000000000000e+00
    X0000004  C0000029   1.000000000000e+00
    X0000004  C0000028   1.000000000000e+00
    X0000004  C0000048   1.000000000000e+00
    X0000004  OBJ        1.000000000000e+00
    X0000005  C0000016   1.000000000000e+00
    X0000005  C0000017   1.000000000000e+00
    X0000005  C0000014   1.000000000000e+00
    X0000005  C0000015   1.000000000000e+00
    X0000005  C0000012   1.000000000000e+00
    X0000005  C0000013   1.000000000000e+00
    X0000005  C0000010   1.000000000000e+00
    X0000005  C0000011   1.000000000000e+00
    X0000005  C0000038   1.000000000000e+00
    X0000005  C0000039   1.000000000000e+00
    X0000005  C0000032   1.000000000000e+00
    X0000005  C0000018   1.000000000000e+00
    X0000005  C0000019   1.000000000000e+00
    X0000005  C0000033   1.000000000000e+00
    X0000005  C0000034   1.000000000000e+00
    X0000005  C0000035   1.000000000000e+00
    X0000005  C0000045   1.000000000000e+00
    X0000005  C0000030   1.000000000000e+00
    X0000005  C0000036   1.000000000000e+00
    X0000005  C0000044   1.000000000000e+00
    X0000005  C0000037   1.000000000000e+00
    X0000005  C0000031   1.000000000000e+00
    X0000005  C0000009   1.000000000000e+00
    X0000005  C0000008   1.000000000000e+00
    X0000005  C0000047   1.000000000000e+00
    X0000005  C0000046   1.000000000000e+00
    X0000005  C0000041   1.000000000000e+00
    X0000005  C0000040   1.000000000000e+00
    X0000005  C0000043   1.000000000000e+00
    X0000005  C0000042   1.000000000000e+00
    X0000005  C0000001   5.000000000000e+00
    X0000005  C0000000   3.000000000000e+00
    X0000005  C0000003   1.000000000000e+00
    X0000005  C0000002   1.000000000000e+00
    X0000005  C0000005   1.000000000000e+00
    X0000005  C0000004   1.000000000000e+00
    X0000005  C0000007   1.000000000000e+00
    X0000005  C0000006   1.000000000000e+00
    X0000005  C0000023   1.000000000000e+00
    X0000005  C0000022   1.000000000000e+00
    X0000005  C0000021   1.000000000000e+00
    X0000005  C0000020   1.000000000000e+00
    X0000005  C0000027   1.000000000000e+00
    X0000005  C0000026   1.000000000000e+00
    X0000005  C0000025   1.000000000000e+00
    X0000005  C0000024   1.000000000000e+00
    X0000005  C0000029   1.000000000000e+00
    X0000005  C0000028   1.000000000000e+00
    X0000005  C0000048   1.000000000000e+00
    X0000005  OBJ        1.000000000000e+00
    X0000006  C0000016   1.000000000000e+00
    X0000006  C0000017   1.000000000000e+00
    X0000006  C0000014   1.000000000000e+00
    X0000006  C0000015   1.000000000000e+00
    X0000006  C0000012   1.000000000000e+00
    X0000006  C0000013   1.000000000000e+00
    X0000006  C0000010   1.000000000000e+00
    X0000006  C0000011   1.000000000000e+00
    X0000006  C0000038   1.000000000000e+00
    X0000006  C0000039   1.000000000000e+00
    X0000006  C0000032   1.000000000000e+00
    X0000006  C0000018   1.000000000000e+00
    X0000006  C0000019   1.000000000000e+00
    X0000006  C0000033   1.000000000000e+00
    X0000006  C0000034   1.000000000000e+00
    X0000006  C0000035   1.000000000000e+00
    X0000006  C0000045   1.000000000000e+00
    X0000006  C0000030   1.000000000000e+00
    X0000006  C0000036   1.000000000000e+00
    X0000006  C0000044   1.000000000000e+00
    X0000006  C0000037   1.000000000000e+00
    X0000006  C0000031   1.000000000000e+00
    X0000006  C0000009   1.000000000000e+00
    X0000006  C0000008   1.000000000000e+00
    X0000006  C0000047   1.000000000000e+00
    X0000006  C0000046   1.000000000000e+00
    X0000006  C0000041   1.000000000000e+00
    X0000006  C0000040   1.000000000000e+00
    X0000006  C0000043   1.000000000000e+00
    X0000006  C0000042   1.000000000000e+00
    X0000006  C0000001   8.000000000000e+00
    X0000006  C0000000   3.000000000000e+00
    X0000006  C0000003   1.000000000000e+00
    X0000006  C0000002   1.000000000000e+00
    X0000006  C0000005   1.000000000000e+00
    X0000006  C0000004   1.000000000000e+00
    X0000006  C0000007   1.000000000000e+00
    X0000006  C0000006   1.000000000000e+00
    X0000006  C0000023   1.000000000000e+00
    X0000006  C0000022   1.000000000000e+00
    X0000006  C0000021   1.000000000000e+00
    X0000006  C0000020   1.000000000000e+00
    X0000006  C0000027   1.000000000000e+00
    X0000006  C0000026   1.000000000000e+00
    X0000006  C0000025   1.000000000000e+00
    X0000006  C0000024   1.000000000000e+00
    X0000006  C0000029   1.000000000000e+00
    X0000006  C0000028   1.000000000000e+00
    X0000006  C0000048   1.000000000000e+00
    X0000006  OBJ        1.000000000000e+00
RHS
    RHS       C0000000   1.000000000000e+01
    RHS       C0000001   4.437500002875e+01
    RHS       C0000002   3.000000000000e+00
    RHS       C0000003   3.000000000000e+00
    RHS       C0000004   3.000000000000e+00
    RHS       C0000005   3.000000000000e+00
    RHS       C0000006   3.000000000000e+00
    RHS       C0000007   3.000000000000e+00
    RHS       C0000008   3.000000000000e+00
    RHS       C0000009   3.000000000000e+00
    RHS       C0000010   3.000000000000e+00
    RHS       C0000011   3.000000000000e+00
    RHS       C0000012   3.000000000000e+00
    RHS       C0000013   3.000000000000e+00
    RHS       C0000014   3.000000000000e+00
    RHS       C0000015   3.000000000000e+00
    RHS       C0000016   3.000000000000e+00
    RHS       C0000017   3.000000000000e+00
    RHS       C0000018   3.000000000000e+00
    RHS       C0000019   3.000000000000e+00
    RHS       C0000020   3.000000000000e+00
    RHS       C0000021   3.000000000000e+00
    RHS       C0000022   3.000000000000e+00
    RHS       C0000023   3.000000000000e+00
    RHS       C0000024   3.000000000000e+00
    RHS       C0000025   3.000000000000e+00
    RHS       C0000026   3.000000000000e+00
    RHS       C0000027   3.000000000000e+00
    RHS       C0000028   3.000000000000e+00
    RHS       C0000029   3.000000000000e+00
    RHS       C0000030   3.000000000000e+00
    RHS       C0000031   3.000000000000e+00
    RHS       C0000032   3.000000000000e+00
    RHS       C0000033   3.000000000000e+00
    RHS       C0000034   3.000000000000e+00
    RHS       C0000035   3.000000000000e+00
    RHS       C0000036   3.000000000000e+00
    RHS       C0000037   3.000000000000e+00
    RHS       C0000038   3.000000000000e+00
    RHS       C0000039   3.000000000000e+00
    RHS       C0000040   3.000000000000e+00
    RHS       C0000041   3.000000000000e+00
    RHS       C0000042   3.000000000000e+00
    RHS       C0000043   3.000000000000e+00
    RHS       C0000044   3.000000000000e+00
    RHS       C0000045   3.000000000000e+00
    RHS       C0000046   3.000000000000e+00
    RHS       C0000047   3.000000000000e+00
    RHS       C0000048   3.000000000000e+00
BOUNDS
 UP BND       X0000000   1.000000000000e+00
 UP BND       X0000001   1.000000000000e+00
 UP BND       X0000002   1.000000000000e+00
 UP BND       X0000003   1.000000000000e+00
 UP BND       X0000004   1.000000000000e+00
 UP BND       X0000005   1.000000000000e+00
 UP BND       X0000006   1.000000000000e+00
ENDATA
