15200-pulp.sol
Optimal - objective value 3.00000000
      0 C0000000              10                      -0
      1 C0000001          44.375                      -0
      2 C0000002       2.5700431                      -0
      3 C0000003               3                      -0
      4 C0000004               3                      -0
      5 C0000005               3                      -0
      6 C0000006               3                      -0
      7 C0000007               3                      -0
      8 C0000008               3                      -0
      9 C0000009               3                      -0
     10 C0000010               3                      -0
     11 C0000011               3                      -0
     12 C0000012               3                      -0
     13 C0000013               3                      -0
     14 C0000014               3                      -0
     15 C0000015               3                      -0
     16 C0000016               3                      -0
     17 C0000017               3                      -0
     18 C0000018               3                      -0
     19 C0000019               3                      -0
     20 C0000020               3                      -0
     21 C0000021               3                      -0
     22 C0000022               3                      -0
     23 C0000023               3                      -0
     24 C0000024               3                      -0
     25 C0000025               3                      -0
     26 C0000026               3                      -0
     27 C0000027               3                      -0
     28 C0000028               3                      -0
     29 C0000029               3                      -0
     30 C0000030               3                      -0
     31 C0000031               3                      -0
     32 C0000032               3                      -0
     33 C0000033               3                      -0
     34 C0000034               3                      -0
     35 C0000035               3                      -0
     36 C0000036               3                      -0
     37 C0000037               3                      -0
     38 C0000038               3                      -0
     39 C0000039               3                      -0
     40 C0000040               3                      -0
     41 C0000041               3                      -0
     42 C0000042               3                      -0
     43 C0000043               3                      -0
     44 C0000044               3                      -0
     45 C0000045               3                      -0
     46 C0000046               3                       1
     47 C0000047               3                      -0
     48 C0000048               3                      -0
      0 X0000000       0.4299569          4.4408921e-016
      1 X0000001               0           2.220446e-016
      2 X0000002      0.85344828           2.220446e-016
      3 X0000003               1           2.220446e-016
      4 X0000004      0.28663793           2.220446e-016
      5 X0000005               0           2.220446e-016
      6 X0000006               0           2.220446e-016
